proyfinal/src/viki/013/experimentInOfficeAgust.take6.output/ee77f41b-9101-424b-aff5-843779e6f40e.als.out
Reading from standard input... Use '--help' for help.
============================[ Problem Statistics ]=============================
|                                                                             |
|  Number of variables:         87638                                         |
|  Number of clauses:          161767                                         |
|  Parse time:                   0.04 s                                       |
|                                                                             |
============================[ Search Statistics ]==============================
| Conflicts |          ORIGINAL         |          LEARNT          | Progress |
|           |    Vars  Clauses Literals |    Limit  Clauses Lit/Cl |          |
===============================================================================
|       100 |   63974   110886   276978 |    40658      100     10 | 27.002 % |
|       250 |   63973   110886   276978 |    44724      249     54 | 27.003 % |
|       475 |   63957   110818   276818 |    49196      474     66 | 27.021 % |
|       812 |   63957   110818   276818 |    54116      811     68 | 27.021 % |
|      1318 |   63873   110474   276023 |    59527     1312     77 | 27.117 % |
|      2077 |   63873   110474   276023 |    65480     2071     70 | 27.117 % |
|      3216 |   63854   110398   275843 |    72028     3208     61 | 27.139 % |
|      4924 |   63807   110154   275192 |    79231     3194     63 | 27.193 % |
|      7486 |   63784   110018   274891 |    87154     5752     73 | 27.219 % |
|     11330 |   63614   109299   273198 |    95869     8857     73 | 27.413 % |
|     17096 |   53350    75978   190718 |   105456    11862     64 | 39.125 % |
===============================================================================
restarts              : 63
conflicts             : 18726          (8237 /sec)
decisions             : 69339          (0.00 % random) (30502 /sec)
propagations          : 23820315       (10478399 /sec)
conflict literals     : 1146137        (49.76 % deleted)
Memory used           : 43.04 MB
CPU time              : 2.27328 s

UNSATISFIABLE
